(set-info :smt-lib-version 2.6)
(set-logic LRA)
(set-info :source |
   Monniaux, David; Quantifier Elimination by Lazy Model Enumeration, CAV 2010
|)
(set-info :category "random")
; ./Mjollnir_examples/B4/formula_039.m
(set-info :status unsat)
(assert
 (exists ((|v11:0| Real) )(exists ((|v10:1| Real) )(exists ((|v9:2| Real) )(exists ((|v8:3| Real) )(forall ((|v7:4| Real) )(forall ((|v6:5| Real) )(forall ((|v5:6| Real) )(forall ((|v4:7| Real) )(exists ((|v3:8| Real) )(exists ((|v2:9| Real) )(exists ((|v1:10| Real) )(exists ((|v0:11| Real) )(let ((?x613 (+ (+ (+ (* 6 |v8:3|) (* 2 |v1:10|)) |v6:5|) (* 10 |v10:1|))))
(let ((?x156 4))
(let ((?x605 (+ (+ (* 18 |v8:3|) (* 17 |v3:8|)) (* 9 |v5:6|))))
(let (($x615 (and (<= (+ ?x605 (* 18 |v5:6|)) ?x156) (<= ?x613 1))))
(let ((?x102 11))
(let ((?x597 (+ (+ (* 16 |v6:5|) (* 15 |v9:2|)) (* 5 |v11:0|))))
(let ((?x82 0))
(let ((?x97 (- 8)))
(let ((?x450 (* ?x97 |v11:0|)))
(let ((?x591 (+ (+ (+ (* (- 1) |v5:6|) (* (- 7) |v2:9|)) ?x450) (* (- 18) |v1:10|))))
(let (($x616 (and (and (<= ?x591 ?x82) (<= (+ ?x597 (* (- 10) |v2:9|)) ?x102)) $x615)))
(let ((?x44 (- 16)))
(let ((?x582 (+ (+ (+ (* 8 |v0:11|) (* ?x97 |v10:1|)) (* ?x156 |v0:11|)) (* (- 1) |v2:9|))))
(let ((?x572 (+ (+ (* ?x156 |v3:8|) (* (- 1) |v8:3|)) (* 10 |v11:0|))))
(let (($x584 (and (<= (+ ?x572 (* 17 |v0:11|)) 1) (<= ?x582 ?x44))))
(let ((?x56 (- 9)))
(let ((?x563 (+ (+ (* (- 10) |v9:2|) (* 10 |v9:2|)) (* 6 |v4:7|))))
(let ((?x19 (- 6)))
(let ((?x24 14))
(let ((?x246 (* ?x24 |v0:11|)))
(let ((?x556 (+ (+ (* (- 4) |v10:1|) (* 9 |v10:1|)) (* (- 19) |v6:5|))))
(let (($x585 (or (and (<= (+ ?x556 ?x246) ?x19) (<= (+ ?x563 (* ?x19 |v11:0|)) ?x56)) $x584)))
(let ((?x122 (- 18)))
(let ((?x31 (- 5)))
(let ((?x299 (* ?x31 |v1:10|)))
(let ((?x548 (+ (+ (+ (* ?x102 |v5:6|) (* ?x102 |v0:11|)) (* 15 |v6:5|)) ?x299)))
(let ((?x108 (- 17)))
(let ((?x126 (* ?x108 |v5:6|)))
(let ((?x542 (+ (+ (* 15 |v6:5|) (* 8 |v8:3|)) (* ?x102 |v6:5|))))
(let ((?x105 (- 4)))
(let ((?x385 (* ?x19 |v3:8|)))
(let ((?x535 (+ (+ (+ (* ?x108 |v9:2|) (* ?x108 |v4:7|)) (* (- 14) |v5:6|)) ?x385)))
(let ((?x277 (- 14)))
(let ((?x527 (* ?x277 |v5:6|)))
(let ((?x530 (+ (+ (+ (* 15 |v7:4|) (* 13 |v4:7|)) ?x527) (* 9 |v6:5|))))
(let (($x551 (and (and (<= ?x530 ?x44) (<= ?x535 ?x105)) (and (<= (+ ?x542 ?x126) ?x102) (<= ?x548 ?x122)))))
(let ((?x170 9))
(let ((?x73 2))
(let ((?x198 (* ?x73 |v1:10|)))
(let ((?x521 (+ (+ (+ (* ?x105 |v5:6|) (* (- 1) |v7:4|)) (* ?x24 |v3:8|)) ?x198)))
(let ((?x10 15))
(let ((?x363 (* ?x24 |v5:6|)))
(let ((?x515 (+ (+ (* ?x24 |v2:9|) (* 10 |v2:9|)) (* 20 |v1:10|))))
(let ((?x53 (- 19)))
(let ((?x489 (* ?x53 |v2:9|)))
(let ((?x508 (+ (+ (* 8 |v2:9|) (* (- 3) |v11:0|)) (* 12 |v0:11|))))
(let ((?x114 6))
(let ((?x141 (- 2)))
(let ((?x317 (* ?x141 |v7:4|)))
(let (($x504 (<= (+ (+ (+ (* ?x114 |v3:8|) (* (- 13) |v11:0|)) ?x317) |v2:9|) ?x114)))
(let (($x524 (and (and $x504 (<= (+ ?x508 ?x489) ?x19)) (and (<= (+ ?x515 ?x363) ?x10) (<= ?x521 ?x170)))))
(let ((?x190 (- 3)))
(let ((?x274 (* ?x190 |v8:3|)))
(let ((?x494 (+ (+ (+ ?x489 (* (- 1) |v1:10|)) (* 18 |v1:10|)) ?x274)))
(let ((?x76 12))
(let ((?x487 (+ (+ (+ (* ?x170 |v3:8|) (* 3 |v9:2|)) (* ?x108 |v8:3|)) (* ?x56 |v6:5|))))
(let ((?x350 (- 13)))
(let ((?x20 (* ?x19 |v1:10|)))
(let ((?x478 (+ (+ (* 3 |v7:4|) (* (- 7) |v8:3|)) (* ?x56 |v10:1|))))
(let ((?x470 (+ (+ (* ?x73 |v7:4|) (* 3 |v1:10|)) (* (- 12) |v7:4|))))
(let (($x497 (or (or (<= (+ ?x470 (* ?x108 |v10:1|)) ?x156) (<= (+ ?x478 ?x20) ?x350)) (and (<= ?x487 ?x76) (<= ?x494 ?x31)))))
(let (($x463 (<= (+ (+ (+ |v4:7| (* ?x105 |v4:7|)) (* ?x156 |v3:8|)) (* ?x44 |v0:11|)) ?x141)))
(let ((?x47 5))
(let ((?x455 (+ (+ (+ (* 19 |v10:1|) ?x450) (* 17 |v7:4|)) (* (- 11) |v7:4|))))
(let ((?x445 (* ?x10 |v7:4|)))
(let ((?x444 (+ (+ (* ?x47 |v7:4|) (* 16 |v7:4|)) (* (- 11) |v11:0|))))
(let ((?x249 8))
(let ((?x438 (+ (+ (+ (* ?x114 |v3:8|) (* ?x53 |v0:11|)) (* ?x114 |v6:5|)) (* ?x277 |v2:9|))))
(let (($x465 (and (and (<= ?x438 ?x249) (<= (+ ?x444 ?x445) ?x31)) (and (<= ?x455 ?x47) $x463))))
(let ((?x259 (- 1)))
(let (($x430 (<= (+ (+ (+ ?x198 (* ?x31 |v5:6|)) (* ?x97 |v0:11|)) (* ?x47 |v4:7|)) ?x259)))
(let ((?x14 (- 7)))
(let ((?x421 (+ (+ (* (- 11) |v10:1|) (* (- 11) |v9:2|)) (* ?x53 |v4:7|))))
(let ((?x39 (- 15)))
(let ((?x413 (* ?x114 |v6:5|)))
(let ((?x412 (+ (+ (* 17 |v5:6|) (* 20 |v8:3|)) (* 7 |v6:5|))))
(let ((?x406 (+ (+ (+ (* 7 |v2:9|) (* ?x97 |v8:3|)) (* ?x277 |v3:8|)) (* ?x82 |v6:5|))))
(let (($x432 (and (and (<= ?x406 ?x114) (<= (+ ?x412 ?x413) ?x39)) (and (<= (+ ?x421 (* ?x19 |v0:11|)) ?x14) $x430))))
(let ((?x396 (+ (+ (+ (* ?x190 |v9:2|) (* ?x170 |v9:2|)) (* ?x10 |v1:10|)) (* (- 11) |v8:3|))))
(let ((?x389 (+ (+ (+ ?x385 (* 20 |v7:4|)) (* (- 20) |v1:10|)) |v2:9|)))
(let ((?x210 (- 20)))
(let ((?x382 (+ (+ (+ (* ?x19 |v8:3|) (* ?x190 |v9:2|)) (* 19 |v0:11|)) (* ?x249 |v10:1|))))
(let ((?x167 (* ?x122 |v8:3|)))
(let (($x375 (<= (+ (+ (+ (* ?x76 |v9:2|) (* ?x259 |v0:11|)) (* ?x44 |v9:2|)) ?x167) ?x277)))
(let (($x433 (and (and (and $x375 (<= ?x382 ?x210)) (and (<= ?x389 ?x141) (<= ?x396 ?x114))) $x432)))
(let (($x619 (and (and $x433 (and $x465 $x497)) (and (and $x524 $x551) (and $x585 $x616)))))
(let ((?x364 (+ (+ (+ (* (- 12) |v3:8|) (* ?x76 |v10:1|)) (* ?x249 |v6:5|)) ?x363)))
(let ((?x354 (+ (+ (* 3 |v9:2|) (* ?x350 |v8:3|)) (* 17 |v8:3|))))
(let ((?x34 7))
(let ((?x346 (+ (+ (+ (* ?x108 |v3:8|) (* ?x53 |v11:0|)) (* ?x156 |v2:9|)) (* ?x10 |v2:9|))))
(let ((?x229 17))
(let ((?x339 (+ (+ (+ (* 20 |v4:7|) (* ?x53 |v3:8|)) (* ?x56 |v5:6|)) (* 10 |v3:8|))))
(let (($x367 (and (or (<= ?x339 ?x229) (<= ?x346 ?x34)) (and (<= (+ ?x354 (* ?x210 |v9:2|)) ?x102) (<= ?x364 ?x39)))))
(let ((?x330 (+ (+ (+ (* ?x277 |v4:7|) (* ?x82 |v8:3|)) (* ?x34 |v3:8|)) (* 16 |v10:1|))))
(let ((?x322 (+ (+ (+ (* 13 |v1:10|) ?x317) (* ?x229 |v6:5|)) (* ?x73 |v0:11|))))
(let ((?x312 (* ?x56 |v5:6|)))
(let ((?x313 (+ (+ (+ (* ?x141 |v8:3|) (* 20 |v7:4|)) (* ?x102 |v1:10|)) ?x312)))
(let ((?x85 20))
(let (($x306 (<= (+ (+ (+ ?x299 (* ?x14 |v5:6|)) (* ?x229 |v9:2|)) (* ?x229 |v2:9|)) ?x85)))
(let (($x368 (and (and (and $x306 (<= ?x313 ?x39)) (and (<= ?x322 ?x97) (<= ?x330 ?x249))) $x367)))
(let ((?x74 (* ?x73 |v8:3|)))
(let (($x295 (<= (+ (+ (+ (* ?x24 |v3:8|) (* ?x259 |v10:1|)) (* ?x56 |v3:8|)) ?x74) ?x39)))
(let (($x288 (<= (+ (+ (+ (* ?x73 |v11:0|) (* ?x19 |v5:6|)) (* ?x108 |v9:2|)) ?x74) ?x56)))
(let ((?x271 (* ?x156 |v0:11|)))
(let ((?x272 (+ (+ (+ (* ?x82 |v1:10|) (* 3 |v9:2|)) (* ?x210 |v6:5|)) ?x271)))
(let (($x282 (and (<= ?x272 ?x47) (<= (+ (+ (+ ?x274 (* ?x19 |v10:1|)) (* ?x277 |v0:11|)) |v6:5|) ?x229))))
(let ((?x262 18))
(let ((?x261 (+ (+ (+ (* ?x85 |v11:0|) (* 3 |v5:6|)) (* ?x85 |v2:9|)) (* ?x259 |v4:7|))))
(let ((?x234 (- 10)))
(let ((?x251 (+ (+ (+ (* ?x39 |v2:9|) (* 10 |v2:9|)) ?x246) (* ?x249 |v9:2|))))
(let ((?x27 16))
(let ((?x241 (+ (+ (+ (* ?x234 |v11:0|) (* ?x170 |v1:10|)) (* ?x190 |v11:0|)) (* ?x190 |v5:6|))))
(let ((?x230 (* ?x229 |v3:8|)))
(let ((?x231 (+ (+ (+ (* ?x190 |v7:4|) (* ?x105 |v0:11|)) (* (- 11) |v3:8|)) ?x230)))
(let (($x265 (and (and (<= ?x231 ?x27) (<= ?x241 ?x27)) (or (<= ?x251 ?x234) (<= ?x261 ?x262)))))
(let ((?x204 (* ?x108 |v3:8|)))
(let ((?x217 (+ (+ (+ (* ?x44 |v6:5|) (* 3 |v5:6|)) (* ?x39 |v2:9|)) ?x204)))
(let (($x211 (<= (+ (+ (+ (* ?x47 |v3:8|) ?x204) (* ?x105 |v5:6|)) (* ?x14 |v7:4|)) ?x210)))
(let (($x200 (<= (+ (+ (+ (* ?x44 |v11:0|) (* ?x53 |v0:11|)) (* ?x47 |v6:5|)) ?x198) ?x19)))
(let (($x193 (<= (+ (+ (+ |v10:1| (* ?x102 |v0:11|)) (* ?x108 |v9:2|)) (* ?x190 |v3:8|)) ?x34)))
(let ((?x181 (+ (+ (+ (* ?x122 |v4:7|) (* ?x76 |v9:2|)) (* ?x27 |v4:7|)) (* ?x82 |v11:0|))))
(let ((?x130 (- 12)))
(let ((?x173 (* ?x105 |v10:1|)))
(let (($x175 (<= (+ (+ (+ (* 13 |v7:4|) ?x167) (* ?x170 |v8:3|)) ?x173) ?x130)))
(let ((?x66 13))
(let ((?x161 (+ (+ (* ?x76 |v2:9|) (* 19 |v3:8|)) (* (- 11) |v5:6|))))
(let ((?x153 (+ (+ (* 3 |v8:3|) (* 19 |v6:5|)) (* ?x47 |v2:9|))))
(let (($x165 (and (<= (+ ?x153 (* 19 |v8:3|)) ?x156) (<= (+ ?x161 (* ?x130 |v11:0|)) ?x66))))
(let (($x221 (and (and $x165 (and $x175 (<= ?x181 ?x105))) (and (and $x193 $x200) (and $x211 (<= ?x217 ?x47))))))
(let ((?x140 (+ (+ (+ (* ?x19 |v10:1|) (* ?x31 |v2:9|)) (* ?x66 |v3:8|)) (* ?x122 |v11:0|))))
(let (($x131 (<= (+ (+ (+ (* ?x31 |v10:1|) (* ?x122 |v10:1|)) ?x126) (* ?x24 |v8:3|)) ?x130)))
(let ((?x116 (+ (+ (+ (* ?x105 |v2:9|) (* ?x108 |v1:10|)) (* ?x97 |v0:11|)) (* ?x114 |v1:10|))))
(let ((?x101 (+ (+ (+ (* ?x66 |v9:2|) (* (- 11) |v2:9|)) (* ?x97 |v6:5|)) (* ?x66 |v0:11|))))
(let (($x86 (<= (+ (+ (+ ?x74 (* ?x76 |v9:2|)) (* ?x53 |v0:11|)) (* ?x82 |v0:11|)) ?x85)))
(let ((?x69 10))
(let ((?x68 (+ (+ (+ (* ?x53 |v8:3|) (* ?x56 |v8:3|)) (* 19 |v3:8|)) (* ?x66 |v2:9|))))
(let ((?x45 (* ?x44 |v9:2|)))
(let (($x48 (<= (+ (+ (+ (* ?x31 |v0:11|) (* ?x34 |v1:10|)) (* ?x39 |v7:4|)) ?x45) ?x47)))
(let (($x28 (<= (+ (+ (+ (* ?x10 |v0:11|) (* ?x14 |v10:1|)) ?x20) (* ?x24 |v4:7|)) ?x27)))
(let (($x145 (and (and (or $x28 $x48) (and (<= ?x68 ?x69) $x86)) (and (and (<= ?x101 ?x102) (<= ?x116 ?x14)) (and $x131 (<= ?x140 ?x141))))))
(let (($x370 (and (and $x145 $x221) (and (and $x265 (and $x282 (and $x288 $x295))) $x368))))
(and $x370 $x619)))))))))))))))))))))))))))))))))))))))))))))))))))))))))))))))))))))))))))))))))))))))))))))))))))))))))))))))))))))))))))))))))))))))))))))))
)
)
)
)
)
)
)
)
)
)
)
)
(check-sat)
(exit)

